NAME : gr96.tsp
COMMENT : Optimal tour for gr96.tsp
TYPE : TOUR
DIMENSION : 96
Total Length: 548.0642642989388
TOUR_SECTION
1
37
36
32
31
30
29
2
3
4
5
6
8
7
9
10
12
13
14
15
16
17
20
18
19
21
22
26
28
27
23
24
25
48
47
46
11
45
44
33
34
35
38
39
40
41
42
43
49
50
52
51
55
53
54
58
56
57
69
70
74
73
72
71
59
60
61
62
63
64
68
67
66
65
96
94
95
93
92
76
75
77
78
88
89
90
87
86
85
84
91
83
82
81
79
80
-1
EOF
